Welcome to the CBC MILP Solver 
Version: 2.10.12 
Build Date: Aug 20 2024 

command line - /opt/homebrew/bin/cbc computational_data/real_data/lp/wdbc_trial_012_margin.lp seconds 10.0 solve solu computational_data/real_data/solutions/wdbc_trial_012_margin.sol (default strategy 1)
 CoinLpIO::readLp(): Maximization problem reformulated as minimization
Coin0009I Switching back to maximization to get correct duals etc
seconds was changed from 1e+100 to 10
Continuous objective value is 112.452 - 0.00 seconds
Cgl0003I 0 fixed, 0 tightened bounds, 47 strengthened rows, 0 substitutions
Cgl0003I 0 fixed, 0 tightened bounds, 47 strengthened rows, 0 substitutions
Cgl0003I 0 fixed, 0 tightened bounds, 40 strengthened rows, 0 substitutions
Cgl0003I 0 fixed, 0 tightened bounds, 28 strengthened rows, 0 substitutions
Cgl0003I 0 fixed, 0 tightened bounds, 15 strengthened rows, 0 substitutions
Cgl0003I 0 fixed, 0 tightened bounds, 14 strengthened rows, 0 substitutions
Cgl0003I 0 fixed, 0 tightened bounds, 7 strengthened rows, 0 substitutions
Cgl0003I 0 fixed, 0 tightened bounds, 2 strengthened rows, 0 substitutions
Cgl0003I 0 fixed, 0 tightened bounds, 2 strengthened rows, 0 substitutions
Cgl0004I processed model has 89 rows, 57 columns (57 integer (57 of which binary)) and 1137 elements
Cbc0038I Initial state - 5 integers unsatisfied sum - 0.888889
Cbc0038I Pass   1: suminf.    0.44444 (4) obj. 111.563 iterations 10
Cbc0038I Solution found of 108.007
Cbc0038I Before mini branch and bound, 52 integers at bound fixed and 0 continuous
Cbc0038I Full problem 89 rows 57 columns, reduced to 0 rows 0 columns
Cbc0038I Mini branch and bound did not improve solution (0.01 seconds)
Cbc0038I Round again with cutoff of 108.407
Cbc0038I Pass   2: suminf.    0.44444 (4) obj. 111.563 iterations 0
Cbc0038I Pass   3: suminf.    0.40001 (1) obj. 108.407 iterations 12
Cbc0038I Pass   4: suminf.    0.11111 (1) obj. 108.896 iterations 1
Cbc0038I Pass   5: suminf.    0.62225 (3) obj. 108.407 iterations 12
Cbc0038I Pass   6: suminf.    0.59997 (2) obj. 108.407 iterations 11
Cbc0038I Pass   7: suminf.    0.22222 (2) obj. 108.785 iterations 1
Cbc0038I Pass   8: suminf.    0.59997 (2) obj. 108.407 iterations 1
Cbc0038I Pass   9: suminf.    1.06670 (5) obj. 108.407 iterations 13
Cbc0038I Pass  10: suminf.    1.06670 (5) obj. 108.407 iterations 6
Cbc0038I Pass  11: suminf.    1.48885 (5) obj. 108.407 iterations 3
Cbc0038I Pass  12: suminf.    0.73337 (5) obj. 108.407 iterations 1
Cbc0038I Pass  13: suminf.    1.06670 (5) obj. 108.407 iterations 5
Cbc0038I Pass  14: suminf.    1.48887 (6) obj. 108.407 iterations 18
Cbc0038I Pass  15: suminf.    0.73335 (5) obj. 108.407 iterations 8
Cbc0038I Pass  16: suminf.    1.06668 (5) obj. 108.407 iterations 6
Cbc0038I Pass  17: suminf.    1.06668 (5) obj. 108.407 iterations 2
Cbc0038I Pass  18: suminf.    1.48887 (5) obj. 108.407 iterations 4
Cbc0038I Pass  19: suminf.    1.48885 (7) obj. 108.407 iterations 23
Cbc0038I Pass  20: suminf.    0.95559 (6) obj. 108.407 iterations 7
Cbc0038I Pass  21: suminf.    1.06670 (5) obj. 108.407 iterations 5
Cbc0038I Pass  22: suminf.    1.06670 (5) obj. 108.407 iterations 1
Cbc0038I Pass  23: suminf.    1.48885 (5) obj. 108.407 iterations 3
Cbc0038I Pass  24: suminf.    0.73337 (5) obj. 108.407 iterations 1
Cbc0038I Pass  25: suminf.    1.06670 (5) obj. 108.407 iterations 3
Cbc0038I Pass  26: suminf.    1.48884 (6) obj. 108.407 iterations 16
Cbc0038I Pass  27: suminf.    0.73339 (5) obj. 108.407 iterations 6
Cbc0038I Pass  28: suminf.    1.06672 (5) obj. 108.407 iterations 2
Cbc0038I Pass  29: suminf.    1.06672 (5) obj. 108.407 iterations 0
Cbc0038I Pass  30: suminf.    1.48884 (5) obj. 108.407 iterations 2
Cbc0038I Pass  31: suminf.    1.06672 (5) obj. 108.407 iterations 12
Cbc0038I No solution found this major pass
Cbc0038I Before mini branch and bound, 24 integers at bound fixed and 0 continuous
Cbc0038I Full problem 89 rows 57 columns, reduced to 36 rows 21 columns
Cbc0038I Mini branch and bound did not improve solution (0.01 seconds)
Cbc0038I After 0.01 seconds - Feasibility pump exiting with objective of 108.007 - took 0.00 seconds
Cbc0012I Integer solution of 108.00749 found by feasibility pump after 0 iterations and 0 nodes (0.01 seconds)
Cbc0031I 5 added rows had average density of 29
Cbc0013I At root node, 27 cuts changed objective from 112.00749 to 108.00749 in 1 passes
Cbc0014I Cut generator 0 (Probing) - 0 row cuts average 0.0 elements, 0 column cuts (0 active)  in 0.000 seconds - new frequency is -100
Cbc0014I Cut generator 1 (Gomory) - 5 row cuts average 29.0 elements, 0 column cuts (0 active)  in 0.000 seconds - new frequency is 1
Cbc0014I Cut generator 2 (Knapsack) - 10 row cuts average 17.7 elements, 0 column cuts (0 active)  in 0.000 seconds - new frequency is 1
Cbc0014I Cut generator 3 (Clique) - 0 row cuts average 0.0 elements, 0 column cuts (0 active)  in 0.000 seconds - new frequency is -100
Cbc0014I Cut generator 4 (MixedIntegerRounding2) - 0 row cuts average 0.0 elements, 0 column cuts (0 active)  in 0.000 seconds - new frequency is -100
Cbc0014I Cut generator 5 (FlowCover) - 0 row cuts average 0.0 elements, 0 column cuts (0 active)  in 0.000 seconds - new frequency is -100
Cbc0014I Cut generator 6 (TwoMirCuts) - 7 row cuts average 24.7 elements, 0 column cuts (0 active)  in 0.000 seconds - new frequency is -100
Cbc0014I Cut generator 7 (ZeroHalf) - 5 row cuts average 17.4 elements, 0 column cuts (0 active)  in 0.000 seconds - new frequency is 1
Cbc0001I Search completed - best objective 108.007487, took 0 iterations and 0 nodes (0.01 seconds)
Cbc0035I Maximum depth 0, 0 variables fixed on reduced cost
Cuts at root node changed objective from 112.007 to 108.007
Probing was tried 1 times and created 0 cuts of which 0 were active after adding rounds of cuts (0.000 seconds)
Gomory was tried 1 times and created 5 cuts of which 0 were active after adding rounds of cuts (0.000 seconds)
Knapsack was tried 1 times and created 10 cuts of which 0 were active after adding rounds of cuts (0.000 seconds)
Clique was tried 1 times and created 0 cuts of which 0 were active after adding rounds of cuts (0.000 seconds)
MixedIntegerRounding2 was tried 1 times and created 0 cuts of which 0 were active after adding rounds of cuts (0.000 seconds)
FlowCover was tried 1 times and created 0 cuts of which 0 were active after adding rounds of cuts (0.000 seconds)
TwoMirCuts was tried 1 times and created 7 cuts of which 0 were active after adding rounds of cuts (0.000 seconds)
ZeroHalf was tried 1 times and created 5 cuts of which 0 were active after adding rounds of cuts (0.000 seconds)

Result - Optimal solution found

Objective value:                108.00748700
Enumerated nodes:               0
Total iterations:               0
Time (CPU seconds):             0.01
Time (Wallclock seconds):       0.02

Total time (CPU seconds):       0.01   (Wallclock seconds):       0.02

